\ Shard Replica Assignment

Minimize
  obj: Z

Subject To
  c1: a(0,0) + a(1,0) + a(2,0) + a(3,0) + a(4,0) + a(5,0) + a(6,0) + a(7,0) + a(8,0) + a(9,0) + a(10,0) + a(11,0) + a(12,0) = 2
  c2: a(0,1) + a(1,1) + a(2,1) + a(3,1) + a(4,1) + a(5,1) + a(6,1) + a(7,1) + a(8,1) + a(9,1) + a(10,1) + a(11,1) + a(12,1) = 2
  c3: a(0,2) + a(1,2) + a(2,2) + a(3,2) + a(4,2) + a(5,2) + a(6,2) + a(7,2) + a(8,2) + a(9,2) + a(10,2) + a(11,2) + a(12,2) = 2
  c4: a(0,3) + a(1,3) + a(2,3) + a(3,3) + a(4,3) + a(5,3) + a(6,3) + a(7,3) + a(8,3) + a(9,3) + a(10,3) + a(11,3) + a(12,3) = 2
  c5: a(0,4) + a(1,4) + a(2,4) + a(3,4) + a(4,4) + a(5,4) + a(6,4) + a(7,4) + a(8,4) + a(9,4) + a(10,4) + a(11,4) + a(12,4) = 2
  c6: a(0,5) + a(1,5) + a(2,5) + a(3,5) + a(4,5) + a(5,5) + a(6,5) + a(7,5) + a(8,5) + a(9,5) + a(10,5) + a(11,5) + a(12,5) = 2
  c7: a(0,6) + a(1,6) + a(2,6) + a(3,6) + a(4,6) + a(5,6) + a(6,6) + a(7,6) + a(8,6) + a(9,6) + a(10,6) + a(11,6) + a(12,6) = 2
  c8: a(0,7) + a(1,7) + a(2,7) + a(3,7) + a(4,7) + a(5,7) + a(6,7) + a(7,7) + a(8,7) + a(9,7) + a(10,7) + a(11,7) + a(12,7) = 2
  c9: a(0,8) + a(1,8) + a(2,8) + a(3,8) + a(4,8) + a(5,8) + a(6,8) + a(7,8) + a(8,8) + a(9,8) + a(10,8) + a(11,8) + a(12,8) = 2
  c10: a(0,9) + a(1,9) + a(2,9) + a(3,9) + a(4,9) + a(5,9) + a(6,9) + a(7,9) + a(8,9) + a(9,9) + a(10,9) + a(11,9) + a(12,9) = 2
  c11: a(0,10) + a(1,10) + a(2,10) + a(3,10) + a(4,10) + a(5,10) + a(6,10) + a(7,10) + a(8,10) + a(9,10) + a(10,10) + a(11,10) + a(12,10) = 2
  c12: a(0,11) + a(1,11) + a(2,11) + a(3,11) + a(4,11) + a(5,11) + a(6,11) + a(7,11) + a(8,11) + a(9,11) + a(10,11) + a(11,11) + a(12,11) = 2
  c13: a(0,12) + a(1,12) + a(2,12) + a(3,12) + a(4,12) + a(5,12) + a(6,12) + a(7,12) + a(8,12) + a(9,12) + a(10,12) + a(11,12) + a(12,12) = 2
  c14: a(0,13) + a(1,13) + a(2,13) + a(3,13) + a(4,13) + a(5,13) + a(6,13) + a(7,13) + a(8,13) + a(9,13) + a(10,13) + a(11,13) + a(12,13) = 2
  c15: a(0,14) + a(1,14) + a(2,14) + a(3,14) + a(4,14) + a(5,14) + a(6,14) + a(7,14) + a(8,14) + a(9,14) + a(10,14) + a(11,14) + a(12,14) = 2
  c16: a(0,15) + a(1,15) + a(2,15) + a(3,15) + a(4,15) + a(5,15) + a(6,15) + a(7,15) + a(8,15) + a(9,15) + a(10,15) + a(11,15) + a(12,15) = 2
  c17: a(0,16) + a(1,16) + a(2,16) + a(3,16) + a(4,16) + a(5,16) + a(6,16) + a(7,16) + a(8,16) + a(9,16) + a(10,16) + a(11,16) + a(12,16) = 2
  c18: a(0,17) + a(1,17) + a(2,17) + a(3,17) + a(4,17) + a(5,17) + a(6,17) + a(7,17) + a(8,17) + a(9,17) + a(10,17) + a(11,17) + a(12,17) = 2
  c19: a(0,18) + a(1,18) + a(2,18) + a(3,18) + a(4,18) + a(5,18) + a(6,18) + a(7,18) + a(8,18) + a(9,18) + a(10,18) + a(11,18) + a(12,18) = 2
  c20: a(0,19) + a(1,19) + a(2,19) + a(3,19) + a(4,19) + a(5,19) + a(6,19) + a(7,19) + a(8,19) + a(9,19) + a(10,19) + a(11,19) + a(12,19) = 2
  c21: a(0,20) + a(1,20) + a(2,20) + a(3,20) + a(4,20) + a(5,20) + a(6,20) + a(7,20) + a(8,20) + a(9,20) + a(10,20) + a(11,20) + a(12,20) = 2
  c22: a(0,21) + a(1,21) + a(2,21) + a(3,21) + a(4,21) + a(5,21) + a(6,21) + a(7,21) + a(8,21) + a(9,21) + a(10,21) + a(11,21) + a(12,21) = 2
  c23: a(0,22) + a(1,22) + a(2,22) + a(3,22) + a(4,22) + a(5,22) + a(6,22) + a(7,22) + a(8,22) + a(9,22) + a(10,22) + a(11,22) + a(12,22) = 2
  c24: a(0,23) + a(1,23) + a(2,23) + a(3,23) + a(4,23) + a(5,23) + a(6,23) + a(7,23) + a(8,23) + a(9,23) + a(10,23) + a(11,23) + a(12,23) = 2
  c25: a(0,24) + a(1,24) + a(2,24) + a(3,24) + a(4,24) + a(5,24) + a(6,24) + a(7,24) + a(8,24) + a(9,24) + a(10,24) + a(11,24) + a(12,24) = 2
  c26: a(0,25) + a(1,25) + a(2,25) + a(3,25) + a(4,25) + a(5,25) + a(6,25) + a(7,25) + a(8,25) + a(9,25) + a(10,25) + a(11,25) + a(12,25) = 2
  c27: a(0,26) + a(1,26) + a(2,26) + a(3,26) + a(4,26) + a(5,26) + a(6,26) + a(7,26) + a(8,26) + a(9,26) + a(10,26) + a(11,26) + a(12,26) = 2
  c28: a(0,27) + a(1,27) + a(2,27) + a(3,27) + a(4,27) + a(5,27) + a(6,27) + a(7,27) + a(8,27) + a(9,27) + a(10,27) + a(11,27) + a(12,27) = 2
  c29: a(0,28) + a(1,28) + a(2,28) + a(3,28) + a(4,28) + a(5,28) + a(6,28) + a(7,28) + a(8,28) + a(9,28) + a(10,28) + a(11,28) + a(12,28) = 2
  c30: a(0,29) + a(1,29) + a(2,29) + a(3,29) + a(4,29) + a(5,29) + a(6,29) + a(7,29) + a(8,29) + a(9,29) + a(10,29) + a(11,29) + a(12,29) = 2
  c31: a(0,30) + a(1,30) + a(2,30) + a(3,30) + a(4,30) + a(5,30) + a(6,30) + a(7,30) + a(8,30) + a(9,30) + a(10,30) + a(11,30) + a(12,30) = 2
  c32: a(0,31) + a(1,31) + a(2,31) + a(3,31) + a(4,31) + a(5,31) + a(6,31) + a(7,31) + a(8,31) + a(9,31) + a(10,31) + a(11,31) + a(12,31) = 2
  c33: a(0,32) + a(1,32) + a(2,32) + a(3,32) + a(4,32) + a(5,32) + a(6,32) + a(7,32) + a(8,32) + a(9,32) + a(10,32) + a(11,32) + a(12,32) = 2
  c34: a(0,33) + a(1,33) + a(2,33) + a(3,33) + a(4,33) + a(5,33) + a(6,33) + a(7,33) + a(8,33) + a(9,33) + a(10,33) + a(11,33) + a(12,33) = 2
  c35: a(0,34) + a(1,34) + a(2,34) + a(3,34) + a(4,34) + a(5,34) + a(6,34) + a(7,34) + a(8,34) + a(9,34) + a(10,34) + a(11,34) + a(12,34) = 2
  c36: a(0,35) + a(1,35) + a(2,35) + a(3,35) + a(4,35) + a(5,35) + a(6,35) + a(7,35) + a(8,35) + a(9,35) + a(10,35) + a(11,35) + a(12,35) = 2
  c37: a(0,36) + a(1,36) + a(2,36) + a(3,36) + a(4,36) + a(5,36) + a(6,36) + a(7,36) + a(8,36) + a(9,36) + a(10,36) + a(11,36) + a(12,36) = 2
  c38: a(0,37) + a(1,37) + a(2,37) + a(3,37) + a(4,37) + a(5,37) + a(6,37) + a(7,37) + a(8,37) + a(9,37) + a(10,37) + a(11,37) + a(12,37) = 2
  c39: a(0,38) + a(1,38) + a(2,38) + a(3,38) + a(4,38) + a(5,38) + a(6,38) + a(7,38) + a(8,38) + a(9,38) + a(10,38) + a(11,38) + a(12,38) = 2
  c40: a(0,39) + a(1,39) + a(2,39) + a(3,39) + a(4,39) + a(5,39) + a(6,39) + a(7,39) + a(8,39) + a(9,39) + a(10,39) + a(11,39) + a(12,39) = 2
  c41: a(0,40) + a(1,40) + a(2,40) + a(3,40) + a(4,40) + a(5,40) + a(6,40) + a(7,40) + a(8,40) + a(9,40) + a(10,40) + a(11,40) + a(12,40) = 2
  c42: a(0,41) + a(1,41) + a(2,41) + a(3,41) + a(4,41) + a(5,41) + a(6,41) + a(7,41) + a(8,41) + a(9,41) + a(10,41) + a(11,41) + a(12,41) = 2
  c43: a(0,42) + a(1,42) + a(2,42) + a(3,42) + a(4,42) + a(5,42) + a(6,42) + a(7,42) + a(8,42) + a(9,42) + a(10,42) + a(11,42) + a(12,42) = 2
  c44:  a(0,0) + a(0,1) + a(0,2) + a(0,3) + a(0,4) + a(0,5) + a(0,6) + a(0,7) + a(0,8) + a(0,9) + a(0,10) + a(0,11) + a(0,12) + a(0,13) + a(0,14) + a(0,15) + a(0,16) + a(0,17) + a(0,18) + a(0,19) + a(0,20) + a(0,21) + a(0,22) + a(0,23) + a(0,24) + a(0,25) + a(0,26) + a(0,27) + a(0,28) + a(0,29) + a(0,30) + a(0,31) + a(0,32) + a(0,33) + a(0,34) + a(0,35) + a(0,36) + a(0,37) + a(0,38) + a(0,39) + a(0,40) + a(0,41) + a(0,42) <= 340282350000000000000000000000000000000
  c45: 0.5 a(0,0) + 0.5 a(0,1) + 0.5 a(0,2) + 0.5 a(0,3) + 0.5 a(0,4) + 0.5 a(0,5) + 0.5 a(0,6) + 0.5 a(0,7) + 0.5 a(0,8) + 0.5 a(0,9) + 0.5 a(0,10) + 0.5 a(0,11) + 0.5 a(0,12) + 0.5 a(0,13) + 0.5 a(0,14) + 0.5 a(0,15) + 0.5 a(0,16) + 0.5 a(0,17) + 0.5 a(0,18) + 0.5 a(0,19) + 0.5 a(0,20) + 0.5 a(0,21) + 0.5 a(0,22) + 0.5 a(0,23) + 0.5 a(0,24) + 0.5 a(0,25) + 0.5 a(0,26) + 0.5 a(0,27) + 0.5 a(0,28) + 0.5 a(0,29) + 0.5 a(0,30) + 0.5 a(0,31) + 0.5 a(0,32) + 0.5 a(0,33) + 0.5 a(0,34) + 0.5 a(0,35) + 0.5 a(0,36) + 0.5 a(0,37) + 0.5 a(0,38) + 0.5 a(0,39) + 0.5 a(0,40) + 0.5 a(0,41) + 0.5 a(0,42) - Z <= 0
  c46:  a(1,0) + a(1,1) + a(1,2) + a(1,3) + a(1,4) + a(1,5) + a(1,6) + a(1,7) + a(1,8) + a(1,9) + a(1,10) + a(1,11) + a(1,12) + a(1,13) + a(1,14) + a(1,15) + a(1,16) + a(1,17) + a(1,18) + a(1,19) + a(1,20) + a(1,21) + a(1,22) + a(1,23) + a(1,24) + a(1,25) + a(1,26) + a(1,27) + a(1,28) + a(1,29) + a(1,30) + a(1,31) + a(1,32) + a(1,33) + a(1,34) + a(1,35) + a(1,36) + a(1,37) + a(1,38) + a(1,39) + a(1,40) + a(1,41) + a(1,42) <= 340282350000000000000000000000000000000
  c47: 0.5 a(1,0) + 0.5 a(1,1) + 0.5 a(1,2) + 0.5 a(1,3) + 0.5 a(1,4) + 0.5 a(1,5) + 0.5 a(1,6) + 0.5 a(1,7) + 0.5 a(1,8) + 0.5 a(1,9) + 0.5 a(1,10) + 0.5 a(1,11) + 0.5 a(1,12) + 0.5 a(1,13) + 0.5 a(1,14) + 0.5 a(1,15) + 0.5 a(1,16) + 0.5 a(1,17) + 0.5 a(1,18) + 0.5 a(1,19) + 0.5 a(1,20) + 0.5 a(1,21) + 0.5 a(1,22) + 0.5 a(1,23) + 0.5 a(1,24) + 0.5 a(1,25) + 0.5 a(1,26) + 0.5 a(1,27) + 0.5 a(1,28) + 0.5 a(1,29) + 0.5 a(1,30) + 0.5 a(1,31) + 0.5 a(1,32) + 0.5 a(1,33) + 0.5 a(1,34) + 0.5 a(1,35) + 0.5 a(1,36) + 0.5 a(1,37) + 0.5 a(1,38) + 0.5 a(1,39) + 0.5 a(1,40) + 0.5 a(1,41) + 0.5 a(1,42) - Z <= 0
  c48:  a(2,0) + a(2,1) + a(2,2) + a(2,3) + a(2,4) + a(2,5) + a(2,6) + a(2,7) + a(2,8) + a(2,9) + a(2,10) + a(2,11) + a(2,12) + a(2,13) + a(2,14) + a(2,15) + a(2,16) + a(2,17) + a(2,18) + a(2,19) + a(2,20) + a(2,21) + a(2,22) + a(2,23) + a(2,24) + a(2,25) + a(2,26) + a(2,27) + a(2,28) + a(2,29) + a(2,30) + a(2,31) + a(2,32) + a(2,33) + a(2,34) + a(2,35) + a(2,36) + a(2,37) + a(2,38) + a(2,39) + a(2,40) + a(2,41) + a(2,42) <= 340282350000000000000000000000000000000
  c49: 0.5 a(2,0) + 0.5 a(2,1) + 0.5 a(2,2) + 0.5 a(2,3) + 0.5 a(2,4) + 0.5 a(2,5) + 0.5 a(2,6) + 0.5 a(2,7) + 0.5 a(2,8) + 0.5 a(2,9) + 0.5 a(2,10) + 0.5 a(2,11) + 0.5 a(2,12) + 0.5 a(2,13) + 0.5 a(2,14) + 0.5 a(2,15) + 0.5 a(2,16) + 0.5 a(2,17) + 0.5 a(2,18) + 0.5 a(2,19) + 0.5 a(2,20) + 0.5 a(2,21) + 0.5 a(2,22) + 0.5 a(2,23) + 0.5 a(2,24) + 0.5 a(2,25) + 0.5 a(2,26) + 0.5 a(2,27) + 0.5 a(2,28) + 0.5 a(2,29) + 0.5 a(2,30) + 0.5 a(2,31) + 0.5 a(2,32) + 0.5 a(2,33) + 0.5 a(2,34) + 0.5 a(2,35) + 0.5 a(2,36) + 0.5 a(2,37) + 0.5 a(2,38) + 0.5 a(2,39) + 0.5 a(2,40) + 0.5 a(2,41) + 0.5 a(2,42) - Z <= 0
  c50:  a(3,0) + a(3,1) + a(3,2) + a(3,3) + a(3,4) + a(3,5) + a(3,6) + a(3,7) + a(3,8) + a(3,9) + a(3,10) + a(3,11) + a(3,12) + a(3,13) + a(3,14) + a(3,15) + a(3,16) + a(3,17) + a(3,18) + a(3,19) + a(3,20) + a(3,21) + a(3,22) + a(3,23) + a(3,24) + a(3,25) + a(3,26) + a(3,27) + a(3,28) + a(3,29) + a(3,30) + a(3,31) + a(3,32) + a(3,33) + a(3,34) + a(3,35) + a(3,36) + a(3,37) + a(3,38) + a(3,39) + a(3,40) + a(3,41) + a(3,42) <= 340282350000000000000000000000000000000
  c51: 0.5 a(3,0) + 0.5 a(3,1) + 0.5 a(3,2) + 0.5 a(3,3) + 0.5 a(3,4) + 0.5 a(3,5) + 0.5 a(3,6) + 0.5 a(3,7) + 0.5 a(3,8) + 0.5 a(3,9) + 0.5 a(3,10) + 0.5 a(3,11) + 0.5 a(3,12) + 0.5 a(3,13) + 0.5 a(3,14) + 0.5 a(3,15) + 0.5 a(3,16) + 0.5 a(3,17) + 0.5 a(3,18) + 0.5 a(3,19) + 0.5 a(3,20) + 0.5 a(3,21) + 0.5 a(3,22) + 0.5 a(3,23) + 0.5 a(3,24) + 0.5 a(3,25) + 0.5 a(3,26) + 0.5 a(3,27) + 0.5 a(3,28) + 0.5 a(3,29) + 0.5 a(3,30) + 0.5 a(3,31) + 0.5 a(3,32) + 0.5 a(3,33) + 0.5 a(3,34) + 0.5 a(3,35) + 0.5 a(3,36) + 0.5 a(3,37) + 0.5 a(3,38) + 0.5 a(3,39) + 0.5 a(3,40) + 0.5 a(3,41) + 0.5 a(3,42) - Z <= 0
  c52:  a(4,0) + a(4,1) + a(4,2) + a(4,3) + a(4,4) + a(4,5) + a(4,6) + a(4,7) + a(4,8) + a(4,9) + a(4,10) + a(4,11) + a(4,12) + a(4,13) + a(4,14) + a(4,15) + a(4,16) + a(4,17) + a(4,18) + a(4,19) + a(4,20) + a(4,21) + a(4,22) + a(4,23) + a(4,24) + a(4,25) + a(4,26) + a(4,27) + a(4,28) + a(4,29) + a(4,30) + a(4,31) + a(4,32) + a(4,33) + a(4,34) + a(4,35) + a(4,36) + a(4,37) + a(4,38) + a(4,39) + a(4,40) + a(4,41) + a(4,42) <= 340282350000000000000000000000000000000
  c53: 0.5 a(4,0) + 0.5 a(4,1) + 0.5 a(4,2) + 0.5 a(4,3) + 0.5 a(4,4) + 0.5 a(4,5) + 0.5 a(4,6) + 0.5 a(4,7) + 0.5 a(4,8) + 0.5 a(4,9) + 0.5 a(4,10) + 0.5 a(4,11) + 0.5 a(4,12) + 0.5 a(4,13) + 0.5 a(4,14) + 0.5 a(4,15) + 0.5 a(4,16) + 0.5 a(4,17) + 0.5 a(4,18) + 0.5 a(4,19) + 0.5 a(4,20) + 0.5 a(4,21) + 0.5 a(4,22) + 0.5 a(4,23) + 0.5 a(4,24) + 0.5 a(4,25) + 0.5 a(4,26) + 0.5 a(4,27) + 0.5 a(4,28) + 0.5 a(4,29) + 0.5 a(4,30) + 0.5 a(4,31) + 0.5 a(4,32) + 0.5 a(4,33) + 0.5 a(4,34) + 0.5 a(4,35) + 0.5 a(4,36) + 0.5 a(4,37) + 0.5 a(4,38) + 0.5 a(4,39) + 0.5 a(4,40) + 0.5 a(4,41) + 0.5 a(4,42) - Z <= 0
  c54:  a(5,0) + a(5,1) + a(5,2) + a(5,3) + a(5,4) + a(5,5) + a(5,6) + a(5,7) + a(5,8) + a(5,9) + a(5,10) + a(5,11) + a(5,12) + a(5,13) + a(5,14) + a(5,15) + a(5,16) + a(5,17) + a(5,18) + a(5,19) + a(5,20) + a(5,21) + a(5,22) + a(5,23) + a(5,24) + a(5,25) + a(5,26) + a(5,27) + a(5,28) + a(5,29) + a(5,30) + a(5,31) + a(5,32) + a(5,33) + a(5,34) + a(5,35) + a(5,36) + a(5,37) + a(5,38) + a(5,39) + a(5,40) + a(5,41) + a(5,42) <= 340282350000000000000000000000000000000
  c55: 0.5 a(5,0) + 0.5 a(5,1) + 0.5 a(5,2) + 0.5 a(5,3) + 0.5 a(5,4) + 0.5 a(5,5) + 0.5 a(5,6) + 0.5 a(5,7) + 0.5 a(5,8) + 0.5 a(5,9) + 0.5 a(5,10) + 0.5 a(5,11) + 0.5 a(5,12) + 0.5 a(5,13) + 0.5 a(5,14) + 0.5 a(5,15) + 0.5 a(5,16) + 0.5 a(5,17) + 0.5 a(5,18) + 0.5 a(5,19) + 0.5 a(5,20) + 0.5 a(5,21) + 0.5 a(5,22) + 0.5 a(5,23) + 0.5 a(5,24) + 0.5 a(5,25) + 0.5 a(5,26) + 0.5 a(5,27) + 0.5 a(5,28) + 0.5 a(5,29) + 0.5 a(5,30) + 0.5 a(5,31) + 0.5 a(5,32) + 0.5 a(5,33) + 0.5 a(5,34) + 0.5 a(5,35) + 0.5 a(5,36) + 0.5 a(5,37) + 0.5 a(5,38) + 0.5 a(5,39) + 0.5 a(5,40) + 0.5 a(5,41) + 0.5 a(5,42) - Z <= 0
  c56:  a(6,0) + a(6,1) + a(6,2) + a(6,3) + a(6,4) + a(6,5) + a(6,6) + a(6,7) + a(6,8) + a(6,9) + a(6,10) + a(6,11) + a(6,12) + a(6,13) + a(6,14) + a(6,15) + a(6,16) + a(6,17) + a(6,18) + a(6,19) + a(6,20) + a(6,21) + a(6,22) + a(6,23) + a(6,24) + a(6,25) + a(6,26) + a(6,27) + a(6,28) + a(6,29) + a(6,30) + a(6,31) + a(6,32) + a(6,33) + a(6,34) + a(6,35) + a(6,36) + a(6,37) + a(6,38) + a(6,39) + a(6,40) + a(6,41) + a(6,42) <= 340282350000000000000000000000000000000
  c57: 0.5 a(6,0) + 0.5 a(6,1) + 0.5 a(6,2) + 0.5 a(6,3) + 0.5 a(6,4) + 0.5 a(6,5) + 0.5 a(6,6) + 0.5 a(6,7) + 0.5 a(6,8) + 0.5 a(6,9) + 0.5 a(6,10) + 0.5 a(6,11) + 0.5 a(6,12) + 0.5 a(6,13) + 0.5 a(6,14) + 0.5 a(6,15) + 0.5 a(6,16) + 0.5 a(6,17) + 0.5 a(6,18) + 0.5 a(6,19) + 0.5 a(6,20) + 0.5 a(6,21) + 0.5 a(6,22) + 0.5 a(6,23) + 0.5 a(6,24) + 0.5 a(6,25) + 0.5 a(6,26) + 0.5 a(6,27) + 0.5 a(6,28) + 0.5 a(6,29) + 0.5 a(6,30) + 0.5 a(6,31) + 0.5 a(6,32) + 0.5 a(6,33) + 0.5 a(6,34) + 0.5 a(6,35) + 0.5 a(6,36) + 0.5 a(6,37) + 0.5 a(6,38) + 0.5 a(6,39) + 0.5 a(6,40) + 0.5 a(6,41) + 0.5 a(6,42) - Z <= 0
  c58:  a(7,0) + a(7,1) + a(7,2) + a(7,3) + a(7,4) + a(7,5) + a(7,6) + a(7,7) + a(7,8) + a(7,9) + a(7,10) + a(7,11) + a(7,12) + a(7,13) + a(7,14) + a(7,15) + a(7,16) + a(7,17) + a(7,18) + a(7,19) + a(7,20) + a(7,21) + a(7,22) + a(7,23) + a(7,24) + a(7,25) + a(7,26) + a(7,27) + a(7,28) + a(7,29) + a(7,30) + a(7,31) + a(7,32) + a(7,33) + a(7,34) + a(7,35) + a(7,36) + a(7,37) + a(7,38) + a(7,39) + a(7,40) + a(7,41) + a(7,42) <= 340282350000000000000000000000000000000
  c59: 0.5 a(7,0) + 0.5 a(7,1) + 0.5 a(7,2) + 0.5 a(7,3) + 0.5 a(7,4) + 0.5 a(7,5) + 0.5 a(7,6) + 0.5 a(7,7) + 0.5 a(7,8) + 0.5 a(7,9) + 0.5 a(7,10) + 0.5 a(7,11) + 0.5 a(7,12) + 0.5 a(7,13) + 0.5 a(7,14) + 0.5 a(7,15) + 0.5 a(7,16) + 0.5 a(7,17) + 0.5 a(7,18) + 0.5 a(7,19) + 0.5 a(7,20) + 0.5 a(7,21) + 0.5 a(7,22) + 0.5 a(7,23) + 0.5 a(7,24) + 0.5 a(7,25) + 0.5 a(7,26) + 0.5 a(7,27) + 0.5 a(7,28) + 0.5 a(7,29) + 0.5 a(7,30) + 0.5 a(7,31) + 0.5 a(7,32) + 0.5 a(7,33) + 0.5 a(7,34) + 0.5 a(7,35) + 0.5 a(7,36) + 0.5 a(7,37) + 0.5 a(7,38) + 0.5 a(7,39) + 0.5 a(7,40) + 0.5 a(7,41) + 0.5 a(7,42) - Z <= 0
  c60:  a(8,0) + a(8,1) + a(8,2) + a(8,3) + a(8,4) + a(8,5) + a(8,6) + a(8,7) + a(8,8) + a(8,9) + a(8,10) + a(8,11) + a(8,12) + a(8,13) + a(8,14) + a(8,15) + a(8,16) + a(8,17) + a(8,18) + a(8,19) + a(8,20) + a(8,21) + a(8,22) + a(8,23) + a(8,24) + a(8,25) + a(8,26) + a(8,27) + a(8,28) + a(8,29) + a(8,30) + a(8,31) + a(8,32) + a(8,33) + a(8,34) + a(8,35) + a(8,36) + a(8,37) + a(8,38) + a(8,39) + a(8,40) + a(8,41) + a(8,42) <= 340282350000000000000000000000000000000
  c61: 0.5 a(8,0) + 0.5 a(8,1) + 0.5 a(8,2) + 0.5 a(8,3) + 0.5 a(8,4) + 0.5 a(8,5) + 0.5 a(8,6) + 0.5 a(8,7) + 0.5 a(8,8) + 0.5 a(8,9) + 0.5 a(8,10) + 0.5 a(8,11) + 0.5 a(8,12) + 0.5 a(8,13) + 0.5 a(8,14) + 0.5 a(8,15) + 0.5 a(8,16) + 0.5 a(8,17) + 0.5 a(8,18) + 0.5 a(8,19) + 0.5 a(8,20) + 0.5 a(8,21) + 0.5 a(8,22) + 0.5 a(8,23) + 0.5 a(8,24) + 0.5 a(8,25) + 0.5 a(8,26) + 0.5 a(8,27) + 0.5 a(8,28) + 0.5 a(8,29) + 0.5 a(8,30) + 0.5 a(8,31) + 0.5 a(8,32) + 0.5 a(8,33) + 0.5 a(8,34) + 0.5 a(8,35) + 0.5 a(8,36) + 0.5 a(8,37) + 0.5 a(8,38) + 0.5 a(8,39) + 0.5 a(8,40) + 0.5 a(8,41) + 0.5 a(8,42) - Z <= 0
  c62:  a(9,0) + a(9,1) + a(9,2) + a(9,3) + a(9,4) + a(9,5) + a(9,6) + a(9,7) + a(9,8) + a(9,9) + a(9,10) + a(9,11) + a(9,12) + a(9,13) + a(9,14) + a(9,15) + a(9,16) + a(9,17) + a(9,18) + a(9,19) + a(9,20) + a(9,21) + a(9,22) + a(9,23) + a(9,24) + a(9,25) + a(9,26) + a(9,27) + a(9,28) + a(9,29) + a(9,30) + a(9,31) + a(9,32) + a(9,33) + a(9,34) + a(9,35) + a(9,36) + a(9,37) + a(9,38) + a(9,39) + a(9,40) + a(9,41) + a(9,42) <= 340282350000000000000000000000000000000
  c63: 0.5 a(9,0) + 0.5 a(9,1) + 0.5 a(9,2) + 0.5 a(9,3) + 0.5 a(9,4) + 0.5 a(9,5) + 0.5 a(9,6) + 0.5 a(9,7) + 0.5 a(9,8) + 0.5 a(9,9) + 0.5 a(9,10) + 0.5 a(9,11) + 0.5 a(9,12) + 0.5 a(9,13) + 0.5 a(9,14) + 0.5 a(9,15) + 0.5 a(9,16) + 0.5 a(9,17) + 0.5 a(9,18) + 0.5 a(9,19) + 0.5 a(9,20) + 0.5 a(9,21) + 0.5 a(9,22) + 0.5 a(9,23) + 0.5 a(9,24) + 0.5 a(9,25) + 0.5 a(9,26) + 0.5 a(9,27) + 0.5 a(9,28) + 0.5 a(9,29) + 0.5 a(9,30) + 0.5 a(9,31) + 0.5 a(9,32) + 0.5 a(9,33) + 0.5 a(9,34) + 0.5 a(9,35) + 0.5 a(9,36) + 0.5 a(9,37) + 0.5 a(9,38) + 0.5 a(9,39) + 0.5 a(9,40) + 0.5 a(9,41) + 0.5 a(9,42) - Z <= 0
  c64:  a(10,0) + a(10,1) + a(10,2) + a(10,3) + a(10,4) + a(10,5) + a(10,6) + a(10,7) + a(10,8) + a(10,9) + a(10,10) + a(10,11) + a(10,12) + a(10,13) + a(10,14) + a(10,15) + a(10,16) + a(10,17) + a(10,18) + a(10,19) + a(10,20) + a(10,21) + a(10,22) + a(10,23) + a(10,24) + a(10,25) + a(10,26) + a(10,27) + a(10,28) + a(10,29) + a(10,30) + a(10,31) + a(10,32) + a(10,33) + a(10,34) + a(10,35) + a(10,36) + a(10,37) + a(10,38) + a(10,39) + a(10,40) + a(10,41) + a(10,42) <= 340282350000000000000000000000000000000
  c65: 0.5 a(10,0) + 0.5 a(10,1) + 0.5 a(10,2) + 0.5 a(10,3) + 0.5 a(10,4) + 0.5 a(10,5) + 0.5 a(10,6) + 0.5 a(10,7) + 0.5 a(10,8) + 0.5 a(10,9) + 0.5 a(10,10) + 0.5 a(10,11) + 0.5 a(10,12) + 0.5 a(10,13) + 0.5 a(10,14) + 0.5 a(10,15) + 0.5 a(10,16) + 0.5 a(10,17) + 0.5 a(10,18) + 0.5 a(10,19) + 0.5 a(10,20) + 0.5 a(10,21) + 0.5 a(10,22) + 0.5 a(10,23) + 0.5 a(10,24) + 0.5 a(10,25) + 0.5 a(10,26) + 0.5 a(10,27) + 0.5 a(10,28) + 0.5 a(10,29) + 0.5 a(10,30) + 0.5 a(10,31) + 0.5 a(10,32) + 0.5 a(10,33) + 0.5 a(10,34) + 0.5 a(10,35) + 0.5 a(10,36) + 0.5 a(10,37) + 0.5 a(10,38) + 0.5 a(10,39) + 0.5 a(10,40) + 0.5 a(10,41) + 0.5 a(10,42) - Z <= 0
  c66:  a(11,0) + a(11,1) + a(11,2) + a(11,3) + a(11,4) + a(11,5) + a(11,6) + a(11,7) + a(11,8) + a(11,9) + a(11,10) + a(11,11) + a(11,12) + a(11,13) + a(11,14) + a(11,15) + a(11,16) + a(11,17) + a(11,18) + a(11,19) + a(11,20) + a(11,21) + a(11,22) + a(11,23) + a(11,24) + a(11,25) + a(11,26) + a(11,27) + a(11,28) + a(11,29) + a(11,30) + a(11,31) + a(11,32) + a(11,33) + a(11,34) + a(11,35) + a(11,36) + a(11,37) + a(11,38) + a(11,39) + a(11,40) + a(11,41) + a(11,42) <= 340282350000000000000000000000000000000
  c67: 0.5 a(11,0) + 0.5 a(11,1) + 0.5 a(11,2) + 0.5 a(11,3) + 0.5 a(11,4) + 0.5 a(11,5) + 0.5 a(11,6) + 0.5 a(11,7) + 0.5 a(11,8) + 0.5 a(11,9) + 0.5 a(11,10) + 0.5 a(11,11) + 0.5 a(11,12) + 0.5 a(11,13) + 0.5 a(11,14) + 0.5 a(11,15) + 0.5 a(11,16) + 0.5 a(11,17) + 0.5 a(11,18) + 0.5 a(11,19) + 0.5 a(11,20) + 0.5 a(11,21) + 0.5 a(11,22) + 0.5 a(11,23) + 0.5 a(11,24) + 0.5 a(11,25) + 0.5 a(11,26) + 0.5 a(11,27) + 0.5 a(11,28) + 0.5 a(11,29) + 0.5 a(11,30) + 0.5 a(11,31) + 0.5 a(11,32) + 0.5 a(11,33) + 0.5 a(11,34) + 0.5 a(11,35) + 0.5 a(11,36) + 0.5 a(11,37) + 0.5 a(11,38) + 0.5 a(11,39) + 0.5 a(11,40) + 0.5 a(11,41) + 0.5 a(11,42) - Z <= 0
  c68:  a(12,0) + a(12,1) + a(12,2) + a(12,3) + a(12,4) + a(12,5) + a(12,6) + a(12,7) + a(12,8) + a(12,9) + a(12,10) + a(12,11) + a(12,12) + a(12,13) + a(12,14) + a(12,15) + a(12,16) + a(12,17) + a(12,18) + a(12,19) + a(12,20) + a(12,21) + a(12,22) + a(12,23) + a(12,24) + a(12,25) + a(12,26) + a(12,27) + a(12,28) + a(12,29) + a(12,30) + a(12,31) + a(12,32) + a(12,33) + a(12,34) + a(12,35) + a(12,36) + a(12,37) + a(12,38) + a(12,39) + a(12,40) + a(12,41) + a(12,42) <= 340282350000000000000000000000000000000
  c69: 0.5 a(12,0) + 0.5 a(12,1) + 0.5 a(12,2) + 0.5 a(12,3) + 0.5 a(12,4) + 0.5 a(12,5) + 0.5 a(12,6) + 0.5 a(12,7) + 0.5 a(12,8) + 0.5 a(12,9) + 0.5 a(12,10) + 0.5 a(12,11) + 0.5 a(12,12) + 0.5 a(12,13) + 0.5 a(12,14) + 0.5 a(12,15) + 0.5 a(12,16) + 0.5 a(12,17) + 0.5 a(12,18) + 0.5 a(12,19) + 0.5 a(12,20) + 0.5 a(12,21) + 0.5 a(12,22) + 0.5 a(12,23) + 0.5 a(12,24) + 0.5 a(12,25) + 0.5 a(12,26) + 0.5 a(12,27) + 0.5 a(12,28) + 0.5 a(12,29) + 0.5 a(12,30) + 0.5 a(12,31) + 0.5 a(12,32) + 0.5 a(12,33) + 0.5 a(12,34) + 0.5 a(12,35) + 0.5 a(12,36) + 0.5 a(12,37) + 0.5 a(12,38) + 0.5 a(12,39) + 0.5 a(12,40) + 0.5 a(12,41) + 0.5 a(12,42) - Z <= 0

Bounds
  Z free

Binary
  a(3,18) a(9,7) a(0,17) a(6,32) a(5,20) a(2,38) a(1,37) a(9,12) a(0,31) a(9,25) a(2,9) a(2,13) a(1,36) a(0,42) a(4,39) a(3,26) a(9,42) a(3,40) a(5,24) a(2,0) a(8,9) a(9,15) a(10,22) a(1,35) a(12,35) a(9,22) a(11,8) a(11,15) a(3,6) a(7,28) a(9,9) a(8,40) a(0,41) a(9,35) a(7,40) a(9,8) a(8,41) a(10,12) a(5,17) a(1,27) a(2,27) a(9,19) a(10,37) a(1,21) a(9,27) a(6,42) a(3,41) a(8,38) a(5,14) a(2,5) a(8,25) a(10,40) a(10,38) a(5,26) a(4,22) a(2,41) a(8,31) a(3,38) a(9,31) a(12,1) a(10,26) a(7,9) a(12,19) a(12,33) a(1,7) a(8,0) a(9,5) a(10,6) a(2,1) a(11,19) a(10,42) a(11,24) a(10,34) a(2,14) a(6,21) a(12,0) a(3,24) a(4,10) a(2,26) a(0,10) a(2,20) a(5,32) a(3,37) a(8,11) a(8,3) a(5,6) a(11,31) a(10,5) a(1,20) a(2,7) a(6,38) a(8,35) a(0,25) a(7,3) a(12,7) a(0,3) a(8,22) a(5,15) a(0,29) a(5,42) a(0,11) a(10,10) a(11,20) a(11,6) a(8,27) a(9,24) a(12,6) a(1,25) a(4,31) a(6,12) a(2,10) a(1,15) a(9,23) a(0,39) a(12,25) a(2,4) a(9,13) a(11,28) a(12,30) a(10,41) a(7,19) a(10,36) a(4,26) a(11,30) a(11,0) a(5,3) a(4,8) a(2,17) a(3,14) a(6,28) a(8,13) a(2,15) a(3,10) a(9,21) a(11,23) a(4,40) a(3,13) a(12,9) a(1,28) a(7,8) a(5,11) a(11,37) a(10,3) a(8,16) a(12,12) a(8,12) a(4,23) a(0,12) a(7,17) a(0,19) a(6,13) a(8,34) a(5,36) a(6,22) a(10,39) a(11,10) a(10,8) a(3,11) a(9,26) a(6,36) a(11,7) a(4,27) a(7,2) a(11,36) a(3,42) a(11,2) a(2,18) a(3,34) a(4,11) a(10,32) a(10,15) a(5,38) a(0,16) a(0,23) a(9,41) a(5,0) a(12,3) a(6,11) a(1,14) a(5,13) a(5,8) a(9,0) a(6,41) a(6,10) a(1,33) a(12,28) a(10,14) a(3,33) a(4,3) a(11,5) a(5,27) a(2,39) a(9,4) a(4,9) a(8,39) a(1,6) a(3,7) a(10,21) a(3,3) a(5,18) a(7,24) a(7,42) a(11,32) a(2,23) a(7,25) a(11,33) a(2,32) a(10,7) a(11,35) a(12,2) a(0,8) a(2,25) a(11,13) a(0,37) a(11,29) a(0,26) a(5,35) a(3,32) a(6,34) a(9,1) a(3,36) a(8,30) a(12,36) a(5,29) a(1,0) a(7,6) a(8,23) a(0,1) a(12,15) a(4,1) a(5,41) a(3,9) a(6,40) a(8,7) a(8,24) a(6,23) a(10,28) a(3,29) a(5,10) a(11,1) a(8,36) a(6,9) a(9,10) a(12,18) a(0,36) a(4,37) a(8,28) a(4,18) a(3,28) a(9,11) a(11,18) a(5,2) a(8,42) a(7,22) a(0,27) a(6,39) a(5,25) a(8,20) a(5,4) a(12,27) a(12,5) a(2,19) a(1,34) a(8,2) a(10,13) a(10,1) a(7,34) a(4,12) a(0,38) a(7,1) a(12,38) a(2,24) a(9,20) a(7,35) a(5,28) a(3,1) a(11,21) a(2,12) a(9,38) a(8,6) a(11,11) a(7,37) a(7,30) a(5,21) a(11,42) a(4,16) a(12,8) a(1,29) a(3,25) a(0,24) a(2,42) a(8,19) a(11,26) a(1,8) a(12,39) a(0,28) a(0,33) a(5,31) a(5,34) a(1,31) a(11,27) a(9,18) a(7,29) a(12,24) a(2,34) a(0,22) a(6,2) a(4,7) a(10,29) a(10,2) a(9,39) a(5,40) a(8,29) a(4,42) a(0,21) a(9,3) a(7,10) a(10,20) a(12,22) a(6,7) a(10,33) a(4,17) a(11,34) a(1,38) a(4,25) a(12,16) a(6,20) a(1,39) a(3,16) a(7,5) a(12,41) a(4,33) a(1,26) a(1,4) a(12,20) a(7,12) a(8,21) a(7,23) a(6,14) a(4,30) a(6,26) a(9,37) a(2,29) a(12,4) a(8,14) a(0,20) a(5,19) a(9,14) a(3,19) a(9,32) a(4,38) a(7,18) a(3,21) a(4,4) a(8,5) a(4,24) a(11,12) a(2,3) a(0,0) a(6,17) a(11,3) a(3,5) a(7,27) a(8,33) a(1,24) a(7,15) a(11,9) a(9,2) a(6,19) a(6,25) a(1,18) a(0,13) a(9,33) a(6,6) a(2,22) a(9,6) a(6,0) a(10,30) a(2,28) a(4,21) a(5,5) a(12,21) a(6,33) a(1,11) a(7,21) a(8,15) a(10,17) a(0,34) a(1,23) a(2,37) a(11,41) a(0,35) a(10,0) a(2,6) a(4,14) a(6,15) a(11,4) a(9,40) a(10,18) a(1,17) a(8,1) a(1,30) a(9,17) a(10,16) a(3,27) a(10,9) a(4,6) a(5,23) a(0,32) a(4,28) a(1,10) a(2,2) a(10,27) a(11,40) a(5,30) a(12,32) a(10,35) a(7,33) a(0,18) a(5,22) a(2,35) a(2,8) a(4,0) a(5,9) a(4,15) a(0,5) a(6,3) a(3,17) a(2,36) a(7,11) a(6,16) a(7,26) a(7,4) a(3,15) a(0,14) a(12,26) a(7,14) a(8,37) a(3,8) a(2,31) a(7,31) a(3,2) a(0,40) a(6,4) a(12,37) a(0,15) a(11,39) a(3,39) a(5,7) a(8,8) a(8,4) a(10,11) a(11,38) a(11,16) a(12,14) a(7,13) a(3,0) a(8,26) a(1,19) a(10,31) a(2,21) a(7,41) a(7,36) a(4,29) a(8,18) a(8,17) a(6,27) a(12,31) a(3,22) a(2,30) a(1,2) a(1,22) a(0,7) a(1,12) a(6,24) a(10,23) a(6,37) a(4,36) a(7,39) a(12,42) a(10,19) a(12,10) a(5,37) a(1,13) a(9,28) a(3,4) a(2,33) a(4,35) a(3,20) a(4,19) a(12,34) a(2,16) a(0,9) a(6,1) a(5,33) a(12,13) a(7,32) a(1,40) a(12,40) a(5,1) a(5,12) a(4,2) a(6,5) a(4,41) a(1,5) a(6,8) a(9,36) a(5,16) a(11,17) a(9,29) a(12,11) a(1,41) a(4,5) a(8,32) a(1,32) a(2,40) a(0,6) a(11,25) a(0,30) a(9,34) a(1,42) a(12,29) a(6,35) a(4,34) a(1,16) a(4,32) a(6,29) a(0,2) a(2,11) a(7,20) a(6,31) a(7,7) a(3,30) a(6,30) a(11,22) a(7,16) a(10,25) a(1,3) a(8,10) a(1,9) a(1,1) a(9,16) a(0,4) a(7,38) a(9,30) a(3,23) a(7,0) a(10,24) a(10,4) a(3,12) a(3,35) a(5,39) a(11,14) a(12,17) a(6,18) a(12,23) a(4,20) a(4,13) a(3,31) 

End